
Gurobi 12.0.3 (linux64) logging started Fri Jan  2 04:16:11 2026

Set parameter LogFile to value "/home/bazzo/Scrivania/fjsp_rescheduling/simulations/logs/EX23/gurobi_exp23.log"
Set parameter OutputFlag to value 1
Set parameter TimeLimit to value 2160
Set parameter Presolve to value 2
Set parameter MIPFocus to value 3
Set parameter Heuristics to value 0.1
Set parameter ImproveStartGap to value 0.5
Set parameter Presolve to value 2
Gurobi Optimizer version 12.0.3 build v12.0.3rc0 (linux64 - "Ubuntu 22.04.5 LTS")

CPU model: Intel(R) Xeon(R) W-2145 CPU @ 3.70GHz, instruction set [SSE2|AVX|AVX2|AVX512]
Thread count: 8 physical cores, 16 logical processors, using up to 16 threads

Non-default parameters:
TimeLimit  2160
Heuristics  0.1
MIPFocus  3
Presolve  2
ImproveStartGap  0.5

Optimize a model with 2520 rows, 1521 columns and 10114 nonzeros
Model fingerprint: 0xb2334e53
Model has 8 quadratic constraints
Variable types: 8 continuous, 1513 integer (1440 binary)
Coefficient statistics:
  Matrix range     [1e+00, 5e+03]
  QMatrix range    [1e+00, 1e+00]
  QLMatrix range   [1e+00, 1e+00]
  Objective range  [1e+00, 1e+00]
  Bounds range     [1e+00, 1e+00]
  RHS range        [1e+00, 1e+04]
Presolve removed 1669 rows and 1133 columns
Presolve time: 0.04s
Presolved: 851 rows, 388 columns, 4100 nonzeros
Presolved model has 8 quadratic constraint(s)
Variable types: 8 continuous, 380 integer (354 binary)
Root relaxation presolve removed 151 rows and 74 columns
Root relaxation presolved: 700 rows, 320 columns, 3416 nonzeros


Root relaxation: objective 4.761000e+03, 92 iterations, 0.00 seconds (0.00 work units)

    Nodes    |    Current Node    |     Objective Bounds      |     Work
 Expl Unexpl |  Obj  Depth IntInf | Incumbent    BestBd   Gap | It/Node Time

H    0     0                    540883.00000 4761.00000  99.1%     -    0s
*    0     0               0    540883.00000 4761.00000  99.1%     -    0s
     0     0 4761.00000    0   30 540883.000 4761.00000  99.1%     -    0s
H    0     0                    512083.00000 4761.00000  99.1%     -    0s
     0     0 25786.0000    0   13 512083.000 25786.0000  95.0%     -    0s
     0     0 25786.0000    0   19 512083.000 25786.0000  95.0%     -    0s
     0     0 36477.0000    0   19 512083.000 36477.0000  92.9%     -    0s
     0     0 36477.0000    0   20 512083.000 36477.0000  92.9%     -    0s
     0     0 41944.0000    0   30 512083.000 41944.0000  91.8%     -    0s
     0     0 41969.0000    0   36 512083.000 41969.0000  91.8%     -    0s
     0     0 44648.0000    0   37 512083.000 44648.0000  91.3%     -    0s
     0     0 46333.0000    0   44 512083.000 46333.0000  91.0%     -    1s
     0     0 46531.0000    0   34 512083.000 46531.0000  90.9%     -    1s
H    0     0                    511322.00000 46531.0000  90.9%     -    1s
H    0     0                    458563.00000 46531.0000  89.9%     -    1s
H    0     0                    310461.00000 46531.0000  85.0%     -    1s
H    0     0                    268861.00000 46531.0000  82.7%     -    1s
     0     0 47608.0000    0   25 268861.000 47608.0000  82.3%     -    1s
H    0     0                    268578.00000 47608.0000  82.3%     -    1s
H    0     0                    250386.00000 47608.0000  81.0%     -    1s
     0     0 51462.7210    0   34 250386.000 51462.7210  79.4%     -    1s
     0     0 53923.4119    0   29 250386.000 53923.4119  78.5%     -    1s
     0     0 59487.0867    0   32 250386.000 59487.0867  76.2%     -    2s
     0     0 61593.5834    0   32 250386.000 61593.5834  75.4%     -    2s
     0     0 62695.8453    0   34 250386.000 62695.8453  75.0%     -    2s
     0     0 62695.8453    0   33 250386.000 62695.8453  75.0%     -    2s
     0     0 67662.9231    0   30 250386.000 67662.9231  73.0%     -    2s
     0     0 67662.9231    0   27 250386.000 67662.9231  73.0%     -    2s
     0     0 67662.9231    0   19 250386.000 67662.9231  73.0%     -    2s
     0     0 67662.9231    0   22 250386.000 67662.9231  73.0%     -    2s
     0     0 67662.9231    0   29 250386.000 67662.9231  73.0%     -    2s
     0     0 67662.9231    0   28 250386.000 67662.9231  73.0%     -    2s
     0     0 67662.9231    0   30 250386.000 67662.9231  73.0%     -    2s
     0     0 67662.9231    0   37 250386.000 67662.9231  73.0%     -    3s
     0     0 67662.9231    0   45 250386.000 67662.9231  73.0%     -    3s
     0     0 67662.9231    0   38 250386.000 67662.9231  73.0%     -    3s
     0     0 67662.9231    0   40 250386.000 67662.9231  73.0%     -    3s
     0     0 69223.1964    0   42 250386.000 69223.1964  72.4%     -    3s
     0     0 69223.1964    0   46 250386.000 69223.1964  72.4%     -    3s
     0     0 74624.0972    0   41 250386.000 74624.0972  70.2%     -    3s
     0     0 74624.0972    0   46 250386.000 74624.0972  70.2%     -    3s
     0     0 84842.2769    0   37 250386.000 84842.2769  66.1%     -    3s
     0     0 84842.2769    0   37 250386.000 84842.2769  66.1%     -    3s
     0     0 88206.4762    0   42 250386.000 88206.4762  64.8%     -    4s
     0     0 88206.4762    0   43 250386.000 88206.4762  64.8%     -    4s
     0     0 93318.0000    0   36 250386.000 93318.0000  62.7%     -    4s
     0     0 93318.0000    0   38 250386.000 93318.0000  62.7%     -    4s
     0     0 98817.0000    0   45 250386.000 98817.0000  60.5%     -    4s
     0     0 98817.0000    0   49 250386.000 98817.0000  60.5%     -    4s
     0     0 103373.630    0   33 250386.000 103373.630  58.7%     -    4s
     0     0 104845.000    0   41 250386.000 104845.000  58.1%     -    4s
     0     0 110077.478    0   33 250386.000 110077.478  56.0%     -    4s
     0     0 110077.478    0   43 250386.000 110077.478  56.0%     -    4s
     0     0 117931.338    0   40 250386.000 117931.338  52.9%     -    4s
     0     0 117931.338    0   44 250386.000 117931.338  52.9%     -    4s
     0     0 122814.000    0   37 250386.000 122814.000  51.0%     -    5s
     0     0 122814.000    0   49 250386.000 122814.000  51.0%     -    5s
     0     0 123837.464    0   38 250386.000 123837.464  50.5%     -    5s
     0     0 124407.000    0   43 250386.000 124407.000  50.3%     -    5s
     0     0 126336.000    0   36 250386.000 126336.000  49.5%     -    5s

Resetting heuristic parameters to focus on improving solution
(using Heuristics=0.5 and RINS=10)...

     0     0 126336.000    0   39 250386.000 126336.000  49.5%     -    5s
     0     0 126336.000    0   43 250386.000 126336.000  49.5%     -    5s
     0     0 126336.000    0   24 250386.000 126336.000  49.5%     -    5s
     0     2 126336.000    0   24 250386.000 126336.000  49.5%     -    5s
     1     5 126336.000    1   27 250386.000 126336.000  49.5%   489    6s

Cutting planes:
  Learned: 46
  Gomory: 42
  Lift-and-project: 51
  Cover: 12
  Implied bound: 18
  MIR: 281
  Mixing: 40
  StrongCG: 276
  Flow cover: 1379
  Inf proof: 1
  Zero half: 31
  Mod-K: 2
  RLT: 48
  Relax-and-lift: 33

Explored 1976 nodes (48864 simplex iterations) in 7.66 seconds (5.70 work units)
Thread count was 16 (of 16 available processors)

Solution count 10: 250386 250386 268578 ... 512083

Optimal solution found (tolerance 1.00e-04)
Best objective 2.503860000000e+05, best bound 2.503860000000e+05, gap 0.0000%

User-callback calls 10209, time in user-callback 0.04 sec
Set parameter TimeLimit to value 1080
Gurobi Optimizer version 12.0.3 build v12.0.3rc0 (linux64 - "Ubuntu 22.04.5 LTS")

CPU model: Intel(R) Xeon(R) W-2145 CPU @ 3.70GHz, instruction set [SSE2|AVX|AVX2|AVX512]
Thread count: 8 physical cores, 16 logical processors, using up to 16 threads

Non-default parameters:
TimeLimit  1080
Heuristics  0.1
MIPFocus  3
Presolve  2
ImproveStartGap  0.5

Optimize a model with 2521 rows, 1521 columns and 10122 nonzeros
Model fingerprint: 0x9d98ee25
Model has 8 quadratic constraints
Variable types: 8 continuous, 1513 integer (1440 binary)
Coefficient statistics:
  Matrix range     [1e+00, 5e+03]
  QMatrix range    [1e+00, 1e+00]
  QLMatrix range   [1e+00, 1e+00]
  Objective range  [5e-01, 5e-01]
  Bounds range     [1e+00, 1e+00]
  RHS range        [1e+00, 3e+05]

MIP start from previous solve produced solution with objective 39 (0.00s)
Loaded MIP start from previous solve with objective 39

Presolve removed 1739 rows and 1172 columns
Presolve time: 0.03s
Presolved: 782 rows, 349 columns, 3821 nonzeros
Presolved model has 8 quadratic constraint(s)
Found heuristic solution: objective 6.0000000
Variable types: 8 continuous, 341 integer (315 binary)

Resetting heuristic parameters to focus on improving solution
(using Heuristics=0.5 and RINS=10)...

Found heuristic solution: objective 5.0000000

Explored 1 nodes (0 simplex iterations) in 0.05 seconds (0.05 work units)
Thread count was 16 (of 16 available processors)

Solution count 3: 5 6 39 

Optimal solution found (tolerance 1.00e-04)
Best objective 5.000000000000e+00, best bound 5.000000000000e+00, gap 0.0000%

User-callback calls 1103, time in user-callback 0.00 sec
Set parameter TimeLimit to value 360
Gurobi Optimizer version 12.0.3 build v12.0.3rc0 (linux64 - "Ubuntu 22.04.5 LTS")

CPU model: Intel(R) Xeon(R) W-2145 CPU @ 3.70GHz, instruction set [SSE2|AVX|AVX2|AVX512]
Thread count: 8 physical cores, 16 logical processors, using up to 16 threads

Non-default parameters:
TimeLimit  360
Heuristics  0.1
MIPFocus  3
Presolve  2
ImproveStartGap  0.5

Optimize a model with 2523 rows, 1521 columns and 10208 nonzeros
Model fingerprint: 0x400f8503
Model has 8 quadratic constraints
Variable types: 8 continuous, 1513 integer (1440 binary)
Coefficient statistics:
  Matrix range     [5e-01, 5e+03]
  QMatrix range    [1e+00, 1e+00]
  QLMatrix range   [1e+00, 1e+00]
  Objective range  [1e+00, 1e+00]
  Bounds range     [1e+00, 1e+00]
  RHS range        [1e+00, 3e+05]

MIP start from previous solve produced solution with objective 1199 (0.00s)
Loaded MIP start from previous solve with objective 1199

Presolve removed 1841 rows and 1207 columns
Presolve time: 0.03s
Presolved: 682 rows, 314 columns, 4196 nonzeros
Presolved model has 8 quadratic constraint(s)
Variable types: 8 continuous, 306 integer (279 binary)

Resetting heuristic parameters to focus on improving solution
(using Heuristics=0.5 and RINS=10)...

Root relaxation presolve removed 370 rows and 165 columns
Root relaxation presolved: 312 rows, 149 columns, 2070 nonzeros


Root relaxation: objective 1.024000e+03, 26 iterations, 0.00 seconds (0.00 work units)

    Nodes    |    Current Node    |     Objective Bounds      |     Work
 Expl Unexpl |  Obj  Depth IntInf | Incumbent    BestBd   Gap | It/Node Time

     0     0 1024.00000    0   15 1199.00000 1024.00000  14.6%     -    0s
     0     0 1024.00000    0   15 1199.00000 1024.00000  14.6%     -    0s
     0     2 1024.00000    0    9 1199.00000 1024.00000  14.6%     -    0s

Cutting planes:
  Learned: 55
  Gomory: 3
  Lift-and-project: 5
  Cover: 9
  Implied bound: 47
  Clique: 3
  MIR: 129
  Mixing: 12
  StrongCG: 139
  Flow cover: 547
  Zero half: 3
  RLT: 27
  Relax-and-lift: 10

Explored 668 nodes (7116 simplex iterations) in 0.72 seconds (0.74 work units)
Thread count was 16 (of 16 available processors)

Solution count 1: 1199 

Optimal solution found (tolerance 1.00e-04)
Best objective 1.199000000000e+03, best bound 1.199000000000e+03, gap 0.0000%

User-callback calls 2664, time in user-callback 0.00 sec
